16 32
1 2 1
1 5 4
2 3 3
2 6 1
3 4 4
3 7 5
4 8 5
5 6 1
5 9 5
6 7 5
6 10 3
7 8 5
7 11 5
8 12 1
9 10 1
9 13 2
10 11 5
10 14 3
11 12 1
11 15 2
12 16 4
13 14 1
14 15 2
15 16 4
1 13 1
2 14 1
3 15 3
4 16 1
1 4 3
5 8 5
9 12 2
13 16 3
